c A SAT instance generated from a 3-CNF formula that had 22 clauses and 11 variables
p cnf 11 22
4 -2 -9 0
-10 -5 3 0
9 11 -10 0
11 -7 -4 0
1 3 -6 0
-3 8 6 0
-9 8 -10 0
-9 10 -6 0
1 8 -4 0
7 1 -4 0
-10 -3 -4 0
5 10 -3 0
1 -9 8 0
-3 8 4 0
-11 -8 -3 0
1 -6 -10 0
-8 -3 -4 0
-3 4 -6 0
-1 -10 5 0
-6 -11 -4 0
-10 3 -5 0
-2 11 -4 0
